--- Job M1_7_E1e.gms Start 01/21/26 10:57:45 51.2.1 5fb43f63 DEX-DEG x86 64bit/macOS
--- Applying:
    /Library/Frameworks/GAMS.framework/Versions/51/Resources/gmsprmun.txt
--- GAMS Parameters defined
    Input "/Users/pm.deoliveiradejes/Dropbox (Personal)/AG_EC_GreenH2/MISE_E4/MISE_E4/MISE_E4-main/M1.7_Energy_Community_Dispatch/Ejemplo_1_MINLP/gams/M1_7_E1e.gms"
    PageSize 0
    ScrDir "/Users/pm.deoliveiradejes/Dropbox (Personal)/AG_EC_GreenH2/MISE_E4/MISE_E4/MISE_E4-main/M1.7_Energy_Community_Dispatch/Ejemplo_1_MINLP/gams/225a/"
    SysDir /Library/Frameworks/GAMS.framework/Versions/51/Resources/
    LogOption 3
    AppendLog 1
    ErrMsg 1
    ErrorLog 99
    IDE 1
    LstTitleLeftAligned 1
Licensee: GAMS Demo, for EULA and demo limitations see   G250826+0003Cc-GEN
          https://www.gams.com/latest/docs/UG%5FLicense.html         DC0000
          /Users/pm.deoliveiradejes/Library/Application Support/GAMS/gamslice.txt
          v:2                                                              
          Demo license for demonstration and instructional purposes only
System information: 4 physical cores and 16 Gb physical memory detected
GAMS 51.2.1   Copyright (C) 1987-2025 GAMS Development. All rights reserved
--- Starting compilation
--- M1_7_E1e.gms(249) 3 Mb
--- Starting execution: elapsed 0:00:00.011
--- M1_7_E1e.gms(246) 4 Mb
--- Generating MINLP model modelCDS
--- M1_7_E1e.gms(249) 6 Mb
---   478 rows  471 columns  1,618 non-zeroes
---   397 nl-code  148 nl-non-zeroes
---   120 discrete-columns
--- Range statistics (absolute non-zero finite values)
--- RHS       [min, max] : [ 3.684E-02, 1.866E+06] - Zero values observed as well
--- Bound     [min, max] : [ 1.000E+00, 2.660E+03] - Zero values observed as well
--- Matrix    [min, max] : [ 4.563E-01, 8.400E+02] - Zero values observed as well
--- M1_7_E1e.gms(249) 4 Mb
--- Executing GUROBI (Solvelink=2): elapsed 0:00:00.221

    Gurobi           51.2.1 5fb43f63 Oct 13, 2025          DEG x86 64bit/macOS    

... GAMS/Gurobi demo/community requires a Gurobi license from Gurobi Optimization.
... GMO Q Extraction (ThreePass): 0.00s
... This solver runs with a demo license. No commercial use.

    Gurobi Optimizer version 12.0.3 build v12.0.3rc0 (mac64[x86] - Darwin 21.6.0 21H1320)
    
    CPU model: Intel(R) Core(TM) i7-6700HQ CPU @ 2.60GHz
    Thread count: 4 physical cores, 8 logical processors, using up to 8 threads
    
    Non-default parameters:
    MIPGapAbs  0
    LogToConsole  0
    
    Optimize a model with 475 rows, 471 columns and 1468 nonzeros
    Model fingerprint: 0x9a0e3f6b
    Model has 3 quadratic constraints
    Variable types: 351 continuous, 120 integer (0 binary)
    Coefficient statistics:
      Matrix range     [9e-01, 8e+02]
      QMatrix range    [1e+00, 4e+02]
      QLMatrix range   [5e-01, 1e+00]
      Objective range  [1e+00, 1e+00]
      Bounds range     [1e+00, 3e+03]
      RHS range        [4e-02, 2e+06]
    Presolve removed 150 rows and 52 columns
    Presolve time: 0.01s
    Presolved: 518 rows, 468 columns, 1598 nonzeros
    Presolved model has 48 bilinear constraint(s)
    
    Solving non-convex MIQCP
    
    Variable types: 352 continuous, 116 integer (116 binary)
    
    Root relaxation: objective -7.977358e+04, 204 iterations, 0.00 seconds (0.00 work units)
    
        Nodes    |    Current Node    |     Objective Bounds      |     Work
     Expl Unexpl |  Obj  Depth IntInf | Incumbent    BestBd   Gap | It/Node Time
    
         0     0 -79773.579    0    3          - -79773.579      -     -    0s
    H    0     0                    -79773.57906 -79773.579  0.00%     -    0s
         0     0 -79773.579    0    3 -79773.579 -79773.579  0.00%     -    0s
    
    Explored 1 nodes (204 simplex iterations) in 0.02 seconds (0.01 work units)
    Thread count was 8 (of 8 available processors)
    
    Solution count 1: -79773.6 
    No other solutions better than -79773.6
    
    Optimal solution found (tolerance 1.00e-04)
    Warning: max constraint violation (7.6294e-06) exceeds tolerance
    Best objective -7.977357905572e+04, best bound -7.977357905572e+04, gap 0.0000%
    
    User-callback calls 478, time in user-callback 0.00 sec

... Solving fixed model...
... This solver runs with a demo license. No commercial use.

    Gurobi Optimizer version 12.0.3 build v12.0.3rc0 (mac64[x86] - Darwin 21.6.0 21H1320)
    
    CPU model: Intel(R) Core(TM) i7-6700HQ CPU @ 2.60GHz
    Thread count: 4 physical cores, 8 logical processors, using up to 8 threads
    
    Non-default parameters:
    MIPGapAbs  0
    LogToConsole  0
    
    Optimize a model with 475 rows, 471 columns and 1468 nonzeros
    Model fingerprint: 0x225df5c5
    Model has 3 quadratic constraints
    Coefficient statistics:
      Matrix range     [9e-01, 8e+02]
      QMatrix range    [1e+00, 4e+02]
      QLMatrix range   [5e-01, 1e+00]
      Objective range  [1e+00, 1e+00]
      Bounds range     [1e+00, 1e+06]
      RHS range        [4e-02, 2e+06]
    Presolve removed 434 rows and 373 columns
    Presolve time: 0.00s
    Presolved: 44 rows, 98 columns, 196 nonzeros
    Ordering time: 0.00s
    
    Barrier statistics:
     Free vars  : 2
     AA' NZ     : 8.000e+01
     Factor NZ  : 5.300e+02
     Factor Ops : 8.210e+03 (less than 1 second per iteration)
     Threads    : 1
    
                      Objective                Residual
    Iter       Primal          Dual         Primal    Dual     Compl     Time
       0  -9.71718872e-10  3.82475527e+01  1.17e+04 1.25e-01  1.64e+02     0s
       1   3.11538335e+02  1.10635317e+01  4.06e+03 1.00e-01  5.41e+01     0s
       2  -1.25892863e+05 -2.66650206e+01  4.06e+03 1.00e-01  1.16e+02     0s
       3  -1.71133216e+05 -5.47828266e+01  4.06e+03 1.00e-01  2.47e+02     0s
       4  -1.74358692e+05  5.12866575e+02  4.06e+03 9.89e-02  3.75e+03     0s
       5  -1.12213565e+05  2.33781402e+03  3.04e+03 9.19e-02  1.20e+04     0s
       6  -9.31691682e+04  1.39158454e+04  1.34e+03 2.08e-02  5.42e+04     0s
       7  -8.84771585e+04 -4.12736505e+04  8.79e+02 3.78e-03  2.85e+04     0s
       8  -8.19424383e+04 -6.81171169e+04  2.65e+02 6.01e-05  8.01e+03     0s
       9  -8.00296314e+04 -7.47474176e+04  7.42e+01 5.78e-06  2.47e+03     0s
      10  -7.92613543e+04 -7.73864781e+04  3.91e+01 6.06e-07  1.13e+03     0s
      11  -8.02326028e+04 -7.88926122e+04  1.58e+00 9.39e-08  2.60e+02     0s
      12  -7.99858999e+04 -7.95592431e+04  3.63e-01 6.43e-08  8.03e+01     0s
      13  -7.98002207e+04 -7.97586816e+04  3.98e-02 4.49e-08  7.92e+00     0s
      14  -7.97738807e+04 -7.97733941e+04  4.68e-04 5.98e-09  9.21e-02     0s
      15  -7.97735791e+04 -7.97735790e+04  1.72e-08 6.36e-11  2.59e-06     0s
      16  -7.97735791e+04 -7.97735791e+04  3.40e-11 1.04e-12  3.19e-12     0s
    
    Barrier solved model in 16 iterations and 0.01 seconds (0.00 work units)
    Optimal objective -7.97735791e+04
    
    
    User-callback calls 109, time in user-callback 0.00 sec
    Warning: to get QCP duals, please set parameter QCPDual to 1

--- Reading solution for model modelCDS
***
*** Solver did not provide marginals for model modelCDS
***
--- Executing after solve: elapsed 0:00:00.965
--- GDX File (execute_unload) /Users/pm.deoliveiradejes/Dropbox (Personal)/AG_EC_GreenH2/MISE_E4/MISE_E4/MISE_E4-main/M1.7_Energy_Community_Dispatch/Ejemplo_1_MINLP/gams/M1_7_E1e.gdx
*** Status: Normal completion
--- Job M1_7_E1e.gms Stop 01/21/26 10:57:46 elapsed 0:00:00.967
